============================[ Problem Statistics ]=============================|                                                                             ||  Number of variables:          4242                                         ||  Number of clauses:            9655                                         ||  Parse time:                   0.06 s                                       ||                                                                             |============================[ Search Statistics ]==============================| Conflicts |          ORIGINAL         |          LEARNT          | Progress ||           |    Vars  Clauses Literals |    Limit  Clauses Lit/Cl |          |==============================================================================================================================================================restarts              : 1conflicts             : 39             (453 /sec)decisions             : 124            (0.00 % random) (1442 /sec)propagations          : 8095           (94128 /sec)conflict literals     : 1488           (95.76 % deleted)CPU time              : 0.086 sSATISFIABLE